
******************************************************************************
This program contains Ipopt, a library for large-scale nonlinear optimization.
 Ipopt is released as open source code under the Eclipse Public License (EPL).
         For more information visit http://projects.coin-or.org/Ipopt
******************************************************************************

NOTE: You are using Ipopt by default with the MUMPS linear solver.
      Other linear solvers might be more efficient (see Ipopt documentation).


This is Ipopt version 3.10.1, running with linear solver mumps.

Number of nonzeros in equality constraint Jacobian...:     6670
Number of nonzeros in inequality constraint Jacobian.:    13582
Number of nonzeros in Lagrangian Hessian.............:      196

Total number of variables............................:     3695
                     variables with only lower bounds:     2730
                variables with lower and upper bounds:      965
                     variables with only upper bounds:        0
Total number of equality constraints.................:     1238
Total number of inequality constraints...............:     3612
        inequality constraints with only lower bounds:      160
   inequality constraints with lower and upper bounds:        0
        inequality constraints with only upper bounds:     3452

iter    objective    inf_pr   inf_du lg(mu)  ||d||  lg(rg) alpha_du alpha_pr  ls
   0 1.5534125e+005 1.10e+003 1.68e+000   0.0 0.00e+000    -  0.00e+000 0.00e+000   0
   1 1.5557389e+005 1.10e+003 4.22e+000   5.3 1.15e+006    -  2.79e-008 1.11e-007f  1
   2 1.5572281e+005 1.10e+003 4.20e+000   5.3 1.61e+006    -  7.22e-008 7.81e-008f  1
   3 1.5607824e+005 1.10e+003 4.20e+000   5.3 2.29e+006    -  2.06e-007 1.95e-007f  1
   4 1.5673361e+005 1.10e+003 4.56e+000   5.3 2.32e+006    -  4.73e-007 3.87e-007f  1
   5 1.5954333e+005 1.10e+003 5.27e+001   5.3 2.27e+006    -  9.40e-007 1.73e-006f  1
   6 1.6434080e+005 1.10e+003 1.34e+002   5.3 2.31e+006    -  5.57e-006 2.91e-006f  1
   7 1.9533732e+005 1.10e+003 4.86e+002   5.3 2.30e+006    -  8.88e-006 1.85e-005f  1
   8 2.4251543e+005 1.10e+003 8.91e+002   5.3 2.30e+006    -  5.90e-005 3.48e-005f  1
   9 2.8337358e+005 1.10e+003 1.50e+003   5.3 2.28e+006    -  9.96e-005 1.46e-004f  1
iter    objective    inf_pr   inf_du lg(mu)  ||d||  lg(rg) alpha_du alpha_pr  ls
  10 3.6491952e+005 1.10e+003 3.65e+004   5.3 2.22e+006    -  2.91e-004 4.65e-004f  1
  11 4.6027470e+005 1.10e+003 3.78e+004   5.3 2.05e+006    -  9.85e-004 6.29e-004f  1
  12 6.9432941e+005 1.10e+003 1.38e+005   5.3 1.65e+006    -  2.25e-003 1.77e-003f  1
  13 8.2249829e+005 1.09e+003 2.41e+005   5.3 9.91e+005    -  2.29e-003 1.79e-003f  1
  14 8.8370146e+005 1.09e+003 1.19e+006   5.3 5.30e+005    -  6.91e-003 2.37e-003f  1
  15 9.6408398e+005 1.08e+003 6.88e+005   5.3 2.05e+005    -  8.33e-003 1.07e-002f  1
  16 9.7572067e+005 1.06e+003 8.65e+004   5.3 4.63e+004    -  1.27e-002 1.55e-002f  1
  17 9.7649506e+005 1.05e+003 5.72e+005   5.3 1.80e+004    -  1.36e-002 1.13e-002f  1
  18 9.7243755e+005 1.02e+003 2.70e+006   5.3 1.04e+004    -  1.57e-002 3.12e-002f  1
  19 9.5294250e+005 9.51e+002 5.87e+006   5.2 9.51e+003    -  1.08e-001 6.68e-002f  1
iter    objective    inf_pr   inf_du lg(mu)  ||d||  lg(rg) alpha_du alpha_pr  ls
  20 9.0750564e+005 8.13e+002 4.38e+005   5.2 8.13e+003    -  1.18e-001 1.45e-001f  1
  21 8.8603403e+005 7.38e+002 5.57e+006   5.1 6.16e+003    -  1.24e-001 9.28e-002f  1
  22 8.3907297e+005 5.49e+002 2.09e+007   5.1 5.04e+003    -  1.42e-001 2.55e-001f  1
  23r8.3907297e+005 5.49e+002 1.00e+003   4.9 0.00e+000    -  0.00e+000 0.00e+000R  1
  24r7.6318164e+005 5.28e+002 7.26e+004   4.3 2.20e+003    -  1.17e-001 5.33e-002f  1
  25r7.7991890e+005 5.09e+002 4.10e+004   4.7 4.66e+003    -  2.43e-001 2.41e-002f  1
  26r7.6912056e+005 2.19e+002 2.41e+004   4.4 2.55e+003    -  5.68e-001 5.94e-001f  1
  27r7.5329321e+005 7.69e+001 9.09e+003   3.8 1.76e+003    -  6.15e-001 5.13e-001f  1
  28r7.4103477e+005 3.00e+001 2.64e+004   3.9 9.01e+002    -  9.70e-001 3.17e-001f  1
  29 7.3407326e+005 4.03e+001 5.67e+002   4.5 2.07e+005    -  4.91e-004 6.54e-004f  1
iter    objective    inf_pr   inf_du lg(mu)  ||d||  lg(rg) alpha_du alpha_pr  ls
  30 7.2799283e+005 2.45e+001 6.19e+003   4.4 1.03e+005    -  6.10e-002 2.08e-003h  1
  31 7.3317531e+005 3.55e+001 7.27e+004   4.4 6.03e+003    -  9.93e-001 9.20e-002h  1
  32 7.4902924e+005 1.25e+001 4.16e+004   3.4 4.20e+002    -  5.57e-001 6.36e-001h  1
  33 7.5499229e+005 3.66e+000 1.82e+004   2.8 1.43e+002    -  6.47e-001 7.04e-001h  1
  34 7.5337901e+005 1.09e+000 3.96e+003   2.0 5.90e+001    -  7.65e-001 7.05e-001h  1
  35 7.4713398e+005 6.53e-001 1.55e+003   1.6 2.41e+002    -  7.41e-001 4.01e-001h  1
  36 7.2263784e+005 6.01e-001 9.95e+002   1.3 9.65e+002    -  7.10e-001 5.53e-001h  1
  37 6.1558744e+005 3.72e+000 1.05e+003   1.3 2.77e+003    -  7.09e-001 9.34e-001h  1
  38 4.9936695e+005 3.19e+000 8.85e+003   0.9 1.41e+003    -  5.79e-001 8.69e-001H  1
  39 4.8669181e+005 3.19e+000 2.15e+005   1.1 2.56e+003    -  7.44e-001 7.11e-002f  3
iter    objective    inf_pr   inf_du lg(mu)  ||d||  lg(rg) alpha_du alpha_pr  ls
  40 4.7553036e+005 3.08e+000 3.87e+005   1.0 3.38e+003    -  6.48e-001 4.24e-002f  5
  41 4.1099249e+005 4.92e+000 5.20e+005   0.9 3.62e+003    -  9.28e-001 1.95e-001f  3
  42 8.3586155e+004 9.32e+001 7.82e+003   0.6 3.94e+003    -  2.82e-001 8.26e-001f  1
  43 1.0406755e+004 5.34e+001 2.21e+004   0.5 2.25e+003    -  4.54e-001 4.27e-001f  1
  44 -8.6438888e+004 1.68e+001 4.86e+004   0.5 2.91e+003    -  7.55e-001 7.95e-001h  1
  45 -1.5993110e+005 3.39e+000 1.91e+006   0.4 1.74e+003    -  3.35e-001 7.74e-001h  1
  46 -2.0406085e+005 1.99e+000 2.20e+006   0.1 2.84e+003    -  7.60e-001 4.54e-001f  1
  47 -2.7362712e+005 9.71e-001 2.21e+005  -0.2 2.79e+003    -  4.22e-001 5.86e-001f  1
  48 -3.0201295e+005 3.36e-001 5.09e+006  -0.1 1.64e+003    -  1.00e+000 6.95e-001h  1
  49 -3.3443275e+005 2.68e-001 2.47e+006  -0.9 1.57e+003    -  5.06e-001 4.98e-001f  1
iter    objective    inf_pr   inf_du lg(mu)  ||d||  lg(rg) alpha_du alpha_pr  ls
  50 -3.5355475e+005 1.75e-001 1.56e+006  -0.9 1.24e+003    -  4.75e-001 5.07e-001f  1
  51 -3.6408172e+005 9.03e-002 1.41e+006  -0.8 1.05e+003    -  9.59e-001 6.40e-001f  1
  52 -3.7427987e+005 5.92e-002 5.89e+005  -1.4 1.03e+003    -  5.55e-001 6.35e-001f  1
  53 -3.8060461e+005 2.48e-002 1.99e+006  -1.7 7.67e+002    -  5.13e-001 7.67e-001f  1
  54 -3.8247850e+005 5.59e-003 1.59e+006  -1.6 1.80e+002    -  5.29e-001 1.00e+000f  1
  55 -3.8432257e+005 4.90e-003 1.41e+006  -2.4 2.20e+002    -  5.46e-001 7.49e-001f  1
  56 -3.8492895e+005 3.05e-003 7.73e+005  -2.6 2.57e+002    -  5.53e-001 6.40e-001f  1
  57 -3.8542757e+005 1.55e-003 4.01e+005  -3.1 3.33e+002    -  6.63e-001 8.05e-001f  1
  58 -3.8551763e+005 8.06e-004 1.32e+005  -3.3 1.02e+002    -  6.05e-001 5.03e-001f  1
  59 -3.8563219e+005 5.86e-005 1.19e+005  -3.5 1.00e+001    -  6.03e-001 1.00e+000f  1
iter    objective    inf_pr   inf_du lg(mu)  ||d||  lg(rg) alpha_du alpha_pr  ls
  60 -3.8566333e+005 9.78e-006 6.15e+004  -4.2 1.24e+001    -  6.09e-001 8.62e-001f  1
  61 -3.8567540e+005 2.88e-007 2.03e+004  -4.8 5.01e+000    -  7.51e-001 1.00e+000f  1
  62 -3.8567734e+005 4.98e-008 2.33e+002  -8.5 4.11e-001  -4.0 9.67e-001 8.54e-001f  1
  63 -3.8567755e+005 1.97e-008 2.11e+002  -8.4 2.41e-001  -4.5 9.87e-001 6.07e-001f  1
  64 -3.8567765e+005 5.20e-009 5.84e+001  -8.3 1.10e-001  -5.0 1.00e+000 7.36e-001f  1
  65 -3.8567767e+005 1.45e-009 1.64e+001  -8.7 3.29e-001  -5.4 1.00e+000 7.21e-001h  1
  66 -3.8567768e+005 1.68e-009 4.63e+000  -9.2 9.89e-001  -5.9 9.76e-001 7.23e-001h  1
  67 -3.8567768e+005 4.56e-010 1.37e+000  -9.6 3.71e-001  -5.5 1.39e-001 7.28e-001h  1
  68 -3.8567768e+005 1.73e-010 4.62e-001 -10.0 1.11e+000  -6.0 8.71e-001 6.39e-001h  1
  69 -3.8567768e+005 6.94e-011 1.05e+000 -10.3 4.17e-001  -5.5 1.00e+000 5.99e-001h  1
iter    objective    inf_pr   inf_du lg(mu)  ||d||  lg(rg) alpha_du alpha_pr  ls
  70 -3.8567768e+005 3.56e-011 8.42e-001  -9.7 1.56e-001  -5.1 8.82e-001 4.87e-001h  1
  71 -3.8567768e+005 1.60e-011 4.27e-001  -9.7 4.69e-001  -5.6 1.00e+000 5.50e-001f  1
  72 -3.8567768e+005 9.78e-012 3.27e-001 -10.4 1.41e+000  -6.1 6.54e-001 3.90e-001f  1
  73 -3.8567768e+005 7.17e-012 2.70e-001 -10.4 4.22e+000  -6.5 6.31e-001 2.67e-001h  1
  74 -3.8567768e+005 5.17e-012 1.95e-001 -10.6 1.98e-001  -5.2 6.40e-001 3.41e-001h  1
  75 -3.8567768e+005 2.12e-012 5.93e-002 -10.3 5.94e-001  -5.7 1.00e+000 6.80e-001h  1
  76 -3.8567768e+005 1.82e-012 3.69e-002 -11.0 2.23e-001  -5.3 7.15e-001 5.40e-001f  1
  77 -3.8567768e+005 1.82e-012 1.77e-002 -11.0 6.68e-001  -5.7 8.31e-001 6.14e-001h  1
  78 -3.8567768e+005 1.82e-012 1.22e-006 -11.0 2.51e-001  -5.3 1.00e+000 1.00e+000h  1
  79 -3.8567768e+005 3.64e-012 1.22e-006 -11.0 9.40e-002  -4.9 1.00e+000 1.00e+000h  1
iter    objective    inf_pr   inf_du lg(mu)  ||d||  lg(rg) alpha_du alpha_pr  ls
  80 -3.8567768e+005 9.09e-013 1.22e-006 -11.0 2.82e-001  -5.4 1.00e+000 1.00e+000h  1
  81 -3.8567768e+005 1.14e-012 1.22e-006 -11.0 1.06e-001  -4.9 1.00e+000 1.00e+000h  1
  82 -3.8567768e+005 1.14e-012 1.22e-006 -11.0 3.17e-001  -5.4 1.00e+000 1.00e+000h  1
  83 -3.8567768e+005 6.82e-013 1.22e-006 -11.0 1.19e-001  -5.0 1.00e+000 1.00e+000h  1
  84 -3.8567768e+005 7.96e-013 1.22e-006 -11.0 3.57e-001  -5.5 1.00e+000 1.00e+000h  1
  85 -3.8567768e+005 6.82e-013 1.22e-006 -11.0 1.34e-001  -5.0 1.00e+000 1.00e+000h  1
  86 -3.8567768e+005 6.25e-013 1.22e-006 -11.0 4.01e-001  -5.5 1.00e+000 1.00e+000h  1
  87 -3.8567768e+005 6.82e-013 1.22e-006 -11.0 1.50e-001  -5.1 1.00e+000 1.00e+000h  1
  88 -3.8567768e+005 6.82e-013 1.22e-006 -11.0 4.51e-001  -5.6 1.00e+000 1.00e+000h  1
  89 -3.8567768e+005 1.25e-012 1.22e-006 -11.0 1.69e-001  -5.1 1.00e+000 1.00e+000h  1
iter    objective    inf_pr   inf_du lg(mu)  ||d||  lg(rg) alpha_du alpha_pr  ls
  90 -3.8567768e+005 9.09e-013 1.22e-006 -11.0 5.08e-001  -5.6 1.00e+000 1.00e+000h  1
  91 -3.8567768e+005 6.82e-013 1.22e-006 -11.0 1.90e-001  -5.2 1.00e+000 1.00e+000h  1
  92 -3.8567768e+005 6.82e-013 1.22e-006 -11.0 5.71e-001  -5.7 1.00e+000 1.00e+000h  1
  93 -3.8567768e+005 5.68e-013 1.22e-006 -11.0 2.14e-001  -5.2 1.00e+000 1.00e+000h  1
  94 -3.8567768e+005 6.25e-013 1.22e-006 -11.0 6.43e-001  -5.7 1.00e+000 1.00e+000h  1
  95 -3.8567768e+005 9.09e-013 1.22e-006 -11.0 2.41e-001  -5.3 1.00e+000 1.00e+000h  1
  96 -3.8567768e+005 6.82e-013 1.22e-006 -11.0 7.23e-001  -5.8 1.00e+000 1.00e+000h  1
  97 -3.8567768e+005 4.55e-013 1.22e-006 -11.0 2.71e-001  -5.3 1.00e+000 1.00e+000h  1
